5
4
40
1 1.3 1.55 1.75 2.1
7 43 18 47 17 11 29 22 44 44 38 45 6 23 14 14 19 27 14 21 25 5 36 41 25 16 46 39 47 36 12 44 12 44 5 41 48 49 9 29 18 14 14 47 30 42 31 40 49 13 29 47 10 43 15 31 16 21 40 19 28 36 18 47 25 18 9 10 11 28 45 8 15 13 21 35 46 45 11 8 12 43 38 29 21 44 13 9 28 24 8 27 6 15 7 14 25 24 33 26 7 27 37 23 20 48 28 24 29 46 36 15 6 15 45 44 44 35 30 23 13 28 31 10 11 30 13 49 5 5 31 36 35 25 34 37 43 38 12 38 41 31 12 29 14 27 24 39 15 33 49 8 28 6 41 45 36 5 31 24 